RT is False
Default write of storage_offers_DA.csv just to have a file (but constraint should be inactive)
Reading model...
...model read.
creating competitive generators file...
...competitive generators recorded.
Loading data...
.. day-ahead data with real-time VRE data read.
Compiling instance...
...instance created.
Creating Offer Mitigation (model will solve as dispatch if TRUE)...
Solving...

Welcome to IBM(R) ILOG(R) CPLEX(R) Interactive Optimizer 12.9.0.0
  with Simplex, Mixed Integer & Barrier Optimizers
5725-A06 5725-A29 5724-Y48 5724-Y49 5724-Y54 5724-Y55 5655-Y21
Copyright IBM Corp. 1988, 2019.  All Rights Reserved.

Type 'help' for a list of available commands.
Type 'help' followed by a command name for more
information on commands.

CPLEX> Logfile 'cplex.log' closed.
Logfile 'C:\Users\llavin\Desktop\test919\logs\tmpj4w8kctn.cplex.log' open.
CPLEX> New value for parallel optimization mode: -1
CPLEX> New value for mixed integer optimality gap tolerance: 0.01
CPLEX> New value for integrality tolerance: 1e-09
CPLEX> New value for feasibility tolerance: 0.01
CPLEX> New value for deterministic time limit in ticks: 75000
CPLEX> Problem 'C:\Users\llavin\Desktop\test919\logs\tmpxwkxjhza.pyomo.lp' read.
Read time = 0.06 sec. (3.04 ticks)
CPLEX> Problem name         : C:\Users\llavin\Desktop\test919\logs\tmpxwkxjhza.pyomo.lp
Objective sense      : Minimize
Variables            :   26081  [Nneg: 1,  Box: 21616,  Free: 4464]
Objective nonzeros   :    2496
Linear constraints   :   27515  [Less: 14006,  Greater: 4416,  Equal: 9093]
  Nonzeros           :   89267
  RHS nonzeros       :   12271

Variables            : Min LB: -5000.000        Max UB: 1000000.       
Objective nonzeros   : Min   : 15.73158         Max   : 124.0997       
Linear constraints   :
  Nonzeros           : Min   : 0.8500000        Max   : 3000.000       
  RHS nonzeros       : Min   : 0.1750000        Max   : 5000.000       
CPLEX> CPXPARAM_Parallel                                -1
CPXPARAM_Simplex_Tolerances_Feasibility          0.01
CPXPARAM_DetTimeLimit                            75000
CPXPARAM_MIP_Tolerances_MIPGap                   0.01
CPXPARAM_MIP_Tolerances_Integrality              1.0000000000000001e-09
Parallel mode: opportunistic, using up to 32 threads for concurrent optimization.
Tried aggregator 1 time.
LP Presolve eliminated 21353 rows and 15463 columns.
Aggregator did 773 substitutions.
Reduced LP has 5389 rows, 9845 columns, and 31806 nonzeros.
Presolve time = 0.05 sec. (30.46 ticks)
Symmetry aggregator did 5563 additional substitutions.

Iteration log . . .
Iteration:     1   Dual objective     =             0.000000
Perturbation started.
Iteration:   101   Dual objective     =             0.000000
Iteration:   335   Dual objective     =             1.229895
Iteration:   593   Dual objective     =             1.753815
Iteration:   850   Dual objective     =             1.890161
Iteration:  1065   Dual objective     =             2.004694
Iteration:  1336   Dual objective     =             2.052133
Iteration:  1582   Dual objective     =             2.080542
Iteration:  1803   Dual objective     =             2.099820
Iteration:  2006   Dual objective     =        107851.912010
Iteration:  2197   Dual objective     =        115306.843502
Iteration:  2411   Dual objective     =        132902.466708
Iteration:  2722   Dual objective     =        145352.021906
Iteration:  3136   Dual objective     =        147673.354515
Removing perturbation.
Dual superbasis not built.
Using devex.

Primal simplex solved model.


Primal simplex - Optimal:  Objective =  1.4767119038e+05
Solution time =    0.17 sec.  Iterations = 1575 (988)
Deterministic time = 79.77 ticks  (463.79 ticks/sec)

CPLEX> Solution written to file 'C:\Users\llavin\Desktop\test919\logs\tmplg0cpgvq.cplex.sol'.
CPLEX> Exporting results... 
...storage offer mitigation file created
Converting model to MPEC...
...converted
NOTE: initial MIP solve with only storage competitive to get feasible solution
Solving...

Welcome to IBM(R) ILOG(R) CPLEX(R) Interactive Optimizer 12.9.0.0
  with Simplex, Mixed Integer & Barrier Optimizers
5725-A06 5725-A29 5724-Y48 5724-Y49 5724-Y54 5724-Y55 5655-Y21
Copyright IBM Corp. 1988, 2019.  All Rights Reserved.

Type 'help' for a list of available commands.
Type 'help' followed by a command name for more
information on commands.

CPLEX> Logfile 'cplex.log' closed.
Logfile 'C:\Users\llavin\Desktop\test919\logs\tmpf1q8yqa4.cplex.log' open.
CPLEX> New value for parallel optimization mode: -1
CPLEX> New value for mixed integer optimality gap tolerance: 0.01
CPLEX> New value for integrality tolerance: 1e-09
CPLEX> New value for feasibility tolerance: 0.01
CPLEX> New value for deterministic time limit in ticks: 75000
CPLEX> Problem 'C:\Users\llavin\Desktop\test919\logs\tmpr69811ax.pyomo.lp' read.
Read time = 0.27 sec. (14.78 ticks)
CPLEX> Problem name         : C:\Users\llavin\Desktop\test919\logs\tmpr69811ax.pyomo.lp
Objective sense      : Maximize
Variables            :   53805  [Nneg: 1,  Box: 22000,  Free: 4464,
                                 Binary: 27340]
Objective nonzeros   :    8980
Linear constraints   :  123205  [Less: 41346,  Greater: 59096,  Equal: 22763]
  Nonzeros           :  291801
  RHS nonzeros       :   67441

Variables            : Min LB: -5000.000        Max UB: 1000000.       
Objective nonzeros   : Min   : 0.1750000        Max   : 772.4167       
Linear constraints   :
  Nonzeros           : Min   : 0.1750000        Max   : 1000000.       
  RHS nonzeros       : Min   : 0.1750000        Max   : 1000000.       
CPLEX> CPXPARAM_Parallel                                -1
CPXPARAM_Simplex_Tolerances_Feasibility          0.01
CPXPARAM_DetTimeLimit                            75000
CPXPARAM_MIP_Tolerances_MIPGap                   0.01
CPXPARAM_MIP_Tolerances_Integrality              1.0000000000000001e-09
Tried aggregator 3 times.
MIP Presolve eliminated 88682 rows and 18982 columns.
MIP Presolve added 3379 rows and 0 columns.
MIP Presolve modified 24849 coefficients.
Aggregator did 12990 substitutions.
Reduced MIP has 24912 rows, 21277 columns, and 71075 nonzeros.
Reduced MIP has 8394 binaries, 0 generals, 0 SOSs, and 0 indicators.
Presolve time = 0.30 sec. (173.86 ticks)
Probing fixed 397 vars, tightened 2806 bounds.
Probing time = 1.20 sec. (885.69 ticks)
Tried aggregator 2 times.
MIP Presolve eliminated 893 rows and 795 columns.
MIP Presolve modified 2192 coefficients.
Aggregator did 36 substitutions.
Reduced MIP has 23983 rows, 20446 columns, and 68381 nonzeros.
Reduced MIP has 7997 binaries, 0 generals, 0 SOSs, and 0 indicators.
Presolve time = 0.11 sec. (68.84 ticks)
Probing time = 0.03 sec. (15.63 ticks)
Clique table members: 6360.
MIP emphasis: balance optimality and feasibility.
MIP search method: dynamic search.
Parallel mode: opportunistic, using up to 32 threads.
Root relaxation solution time = 0.31 sec. (234.21 ticks)

        Nodes                                         Cuts/
   Node  Left     Objective  IInf  Best Integer    Best Bound    ItCnt     Gap

      0     0     3122.4671  1673                   3122.4671     5360         
      0     0     3121.9516    18                    Cuts: 22     5376         
      0     0     3121.0691    14                    Cuts: 29     5384         
      0     0     3120.6031    13                     Cuts: 3     5387         
      0     0     3120.6031    13                   Covers: 1     5388         
      0    16     3064.3361    17                     Cuts: 3     5445         
Elapsed time = 9.72 sec. (5727.57 ticks, tree = 0.02 MB, solutions = 0)
*   427   350      integral     0   -11698.3402     3102.6612     7955  126.52%
*   587   316      integral     0   -11407.8200     3102.6612     7731  127.20%
*   594   387      integral     0     3081.8167     3102.6612     8223    0.68%

Cover cuts applied:  1
Flow cuts applied:  23
Gomory fractional cuts applied:  10

Root node processing (before b&c):
  Real time             =    8.33 sec. (5704.89 ticks)
Parallel b&c, 32 threads:
  Real time             =    3.17 sec. (449.03 ticks)
  Sync time (average)   =    0.83 sec.
  Wait time (average)   =    0.00 sec.
                          ------------
Total (root+branch&cut) =   11.50 sec. (6153.92 ticks)

Solution pool: 5 solutions saved.

MIP - Integer optimal, tolerance (0.01/1e-06):  Objective =  3.0818166984e+03
Current MIP best bound =  3.1026612041e+03 (gap = 20.8445, 0.68%)
Solution time =   11.53 sec.  Iterations = 9377  Nodes = 698 (46)
Deterministic time = 6154.08 ticks  (533.70 ticks/sec)

CPLEX> Incumbent solution written to file 'C:\Users\llavin\Desktop\test919\logs\tmpqbe680vj.cplex.sol'.
CPLEX> NOTE: no warmstart specified for MIP iteration, default behavior is true
NOTE: resolving with all competitive generators using storage-only solution to warmstart
Solving...

Welcome to IBM(R) ILOG(R) CPLEX(R) Interactive Optimizer 12.9.0.0
  with Simplex, Mixed Integer & Barrier Optimizers
5725-A06 5725-A29 5724-Y48 5724-Y49 5724-Y54 5724-Y55 5655-Y21
Copyright IBM Corp. 1988, 2019.  All Rights Reserved.

Type 'help' for a list of available commands.
Type 'help' followed by a command name for more
information on commands.

CPLEX> Logfile 'cplex.log' closed.
Logfile 'C:\Users\llavin\Desktop\test919\logs\tmpsmoiw52r.cplex.log' open.
CPLEX> New value for parallel optimization mode: -1
CPLEX> New value for mixed integer optimality gap tolerance: 0.01
CPLEX> New value for integrality tolerance: 1e-09
CPLEX> New value for feasibility tolerance: 0.01
CPLEX> New value for deterministic time limit in ticks: 75000
CPLEX> Problem 'C:\Users\llavin\Desktop\test919\logs\tmp4ematwhv.pyomo.lp' read.
Read time = 0.25 sec. (14.81 ticks)
CPLEX> MIP start file 'C:\Users\llavin\Desktop\test919\logs\tmp8y7zpdwx.cplex.mst' read.
CPLEX> Problem name         : C:\Users\llavin\Desktop\test919\logs\tmp4ematwhv.pyomo.lp
Objective sense      : Maximize
Variables            :   54525  [Nneg: 1,  Box: 22720,  Free: 4464,
                                 Binary: 27340]
Objective nonzeros   :    9676
Linear constraints   :  123205  [Less: 41346,  Greater: 59096,  Equal: 22763]
  Nonzeros           :  291801
  RHS nonzeros       :   67441

Variables            : Min LB: -5000.000        Max UB: 1000000.       
Objective nonzeros   : Min   : 0.1750000        Max   : 760.8083       
Linear constraints   :
  Nonzeros           : Min   : 0.1750000        Max   : 1000000.       
  RHS nonzeros       : Min   : 0.1750000        Max   : 1000000.       
CPLEX> CPXPARAM_Parallel                                -1
CPXPARAM_Simplex_Tolerances_Feasibility          0.01
CPXPARAM_DetTimeLimit                            75000
CPXPARAM_MIP_Tolerances_MIPGap                   0.01
CPXPARAM_MIP_Tolerances_Integrality              1.0000000000000001e-09
Warning:  No solution found from 1 MIP starts.
Retaining values of one MIP start for possible repair.
Tried aggregator 3 times.
MIP Presolve eliminated 88682 rows and 19702 columns.
MIP Presolve added 3379 rows and 0 columns.
MIP Presolve modified 24849 coefficients.
Aggregator did 12990 substitutions.
Reduced MIP has 24912 rows, 21277 columns, and 71075 nonzeros.
Reduced MIP has 8394 binaries, 0 generals, 0 SOSs, and 0 indicators.
Presolve time = 0.31 sec. (174.22 ticks)
Probing fixed 397 vars, tightened 2806 bounds.
Probing time = 1.19 sec. (885.69 ticks)
Tried aggregator 2 times.
MIP Presolve eliminated 893 rows and 795 columns.
MIP Presolve modified 2192 coefficients.
Aggregator did 36 substitutions.
Reduced MIP has 23983 rows, 20446 columns, and 68381 nonzeros.
Reduced MIP has 7997 binaries, 0 generals, 0 SOSs, and 0 indicators.
Presolve time = 0.09 sec. (68.85 ticks)
Probing time = 0.05 sec. (15.63 ticks)
Clique table members: 6360.
MIP emphasis: balance optimality and feasibility.
MIP search method: dynamic search.
Parallel mode: opportunistic, using up to 32 threads.
Root relaxation solution time = 0.30 sec. (237.99 ticks)

        Nodes                                         Cuts/
   Node  Left     Objective  IInf  Best Integer    Best Bound    ItCnt     Gap

      0     0    66227.6034  1749                  66227.6034     5384         
      0     0    64458.0062   621                   Cuts: 634     5710         
      0     0    64232.5170   545                   Cuts: 272     5826         
      0     0    64174.3367   507                   Cuts: 137     5906         
      0     0    64154.7201   489                    Cuts: 59     5946         
      0     0    64153.6366   466                    Cuts: 54     5991         
      0     0    64153.6366   452                    Cuts: 30     6016         
      0     0    64153.6366   442                    Cuts: 30     6028         
      0     0    64153.6366   430                Flowcuts: 13     6038         
      0     0    61553.7088   425                    Cuts: 10     6071         
      0     0    61534.4878   419                    Cuts: 22     6081         
      0     0    60836.1559   431                    Cuts: 11     6107         
      0     0    60836.1559   430                    Cuts: 23     6118         
      0     0    59950.7861   429                    Cuts: 20     6130         
      0     0    59950.7861   429                    Cuts: 16     6137         
Repair heuristic found nothing.
      0     3    52235.4002   421                    Cuts: 23     6172         
Elapsed time = 12.61 sec. (6843.41 ticks, tree = 0.02 MB, solutions = 0)
    484   378    22262.7889   382                  36414.8861     8958         
    819   539    10113.4596   365                  36414.8861    11705         
   1551   813    10074.9191   316                  36414.8861    17620         
   2793  1375    -3129.0652   314                  36414.8861    21891         
   3928  2783    -1510.0978   308                  36414.8861    23385         
   4751  3786    10105.1268   299                  36414.8861    24097         
   6004  4252    10387.5483   293                  36414.8861    24753         
   7302  5894     9785.5599   289                  36414.8861    25256         
   8532  8170    10387.5483   283                  36414.8861    25561         
  11395  9616    14663.7232   253                  36414.8861    29877         
Elapsed time = 29.13 sec. (9946.70 ticks, tree = 79.22 MB, solutions = 0)
* 12074+ 4433                        10012.9682    36414.8861           263.68%
  13409 10925    27008.2270   365    10012.9682    36414.8861    47028  263.68%
  15454 10524    24302.1794   377    10012.9682    36414.8861    45770  263.68%
  17053  4669    16135.3020   210    10012.9682    36414.8861    53434  263.68%
  17285  6877    infeasible          10012.9682    11979.5924   109134   19.64%
  19118   554    10085.0221    41    10012.9682    11925.2459   112179   19.10%
  20425   822    11793.8529    95    11670.2104    11925.2459   117878    2.19%
* 21468  1563      integral     0    11715.3777    11925.2459   123215    1.79%
  24197   900    11693.6848    46    11735.8694    11922.1448   120635    1.59%

GUB cover cuts applied:  1
Clique cuts applied:  2
Cover cuts applied:  24
Implied bound cuts applied:  10
Flow cuts applied:  245
Mixed integer rounding cuts applied:  40
Zero-half cuts applied:  2
Gomory fractional cuts applied:  74

Root node processing (before b&c):
  Real time             =   11.11 sec. (6835.53 ticks)
Parallel b&c, 32 threads:
  Real time             =   52.55 sec. (16334.11 ticks)
  Sync time (average)   =    3.37 sec.
  Wait time (average)   =    0.18 sec.
                          ------------
Total (root+branch&cut) =   63.66 sec. (23169.64 ticks)

Solution pool: 23 solutions saved.

MIP - Integer optimal, tolerance (0.01/1e-06):  Objective =  1.1735869351e+04
Current MIP best bound =  1.1834615289e+04 (gap = 98.7459, 0.84%)
Solution time =   63.70 sec.  Iterations = 130125  Nodes = 24562 (1240)
Deterministic time = 23169.80 ticks  (363.72 ticks/sec)

CPLEX> Incumbent solution written to file 'C:\Users\llavin\Desktop\test919\logs\tmp952h2h4_.cplex.sol'.
CPLEX> Exporting results... 
